10	5
0	2	2	1
1	1	4
2	0
3	2	6	10
4	1	8
5	1	7
6	1	5
7	1	9
8	1	3
9	1	11
10	1	11
11	0
0	0	0	0	0	0	0
1	1	4	3	5	4	5
2	8	2	3	3	2	5
3	1	3	1	0	3	3
4	3	2	2	1	5	1
5	8	3	1	0	1	0
6	5	4	0	2	0	5
7	6	4	0	4	0	0
8	3	1	0	0	4	4
9	8	1	2	3	3	3
10	8	2	0	1	1	0
11	0	0	0	0	0	0
4	4	5	5	5
